NAME          COPTPROB
OBJSENSE
  MIN
ROWS
 N  __OBJ___
 L  C1      
 L  C2      
 L  C8      
 L  C11     
 L  C12     
 L  C15     
 L  C26     
 L  C27     
 L  C36     
 L  C38     
 L  C44     
 L  C51     
 L  C52     
 L  C53     
 L  C59     
 L  C62     
 L  C64     
 L  C68     
 L  C72     
 L  C77     
 L  C78     
 L  C85     
 L  C89     
 L  C94     
 L  C97     
 L  C100    
 L  C108    
 L  C109    
 L  C116    
 L  C117    
 L  C119    
 L  C120    
 L  C121    
 L  C126    
 L  C129    
 L  C131    
 L  C133    
 L  C142    
 L  C143    
 L  C148    
 L  C150    
 L  C151    
 L  C153    
 L  C158    
 L  C162    
 L  C164    
 L  C166    
 L  C171    
 L  C172    
 L  C174    
 L  C175    
 L  C178    
 L  C181    
 L  C183    
 L  C189    
 L  C196    
 L  C200    
 L  C201    
 L  C202    
 L  C204    
 L  C206    
 L  C207    
 L  C208    
 L  C209    
 L  C211    
 L  C212    
 L  C219    
 L  C221    
 L  C223    
 L  C226    
 L  C227    
 L  C228    
 L  C231    
 L  C236    
 L  C237    
 L  C239    
 L  C241    
 L  C244    
 L  C245    
 L  C246    
 L  C247    
 L  C256    
 L  C257    
 L  C262    
 L  C264    
 L  C267    
 L  C268    
 L  C269    
 L  C273    
 L  C274    
 L  C278    
 L  C279    
 L  C281    
 L  C282    
 L  C283    
 L  C287    
 L  C289    
 L  C292    
 L  C299    
 L  C303    
 L  C305    
 L  C307    
 L  C308    
 L  C310    
 L  C312    
 L  C316    
 L  C322    
 L  C324    
 L  C325    
 L  C326    
 L  C330    
 L  C331    
 L  C333    
 L  C335    
 L  C336    
 L  C339    
 L  C340    
 L  C343    
 L  C344    
 L  C346    
 L  C347    
 L  C350    
 L  C351    
 L  C352    
 L  C356    
 L  C358    
 L  C360    
 L  C361    
 L  C364    
 L  C366    
 L  C370    
 L  C372    
 L  C373    
 L  C374    
 L  C379    
 L  C380    
 L  C384    
 L  C393    
 L  C398    
 L  C399    
COLUMNS
    MARKER    'MARKER'                 'INTORG'
    x3        __OBJ___  805
    x3        C331      -1
    x3        C333      -1
    x3        C350      -1
    x3        C370      -1
    x8        __OBJ___  181
    x8        C2        -1
    x8        C72       -1
    x8        C89       -1
    x8        C239      -1
    x8        C352      -1
    x13       __OBJ___  551
    x13       C26       -1
    x13       C94       -1
    x13       C121      -1
    x13       C223      -1
    x14       __OBJ___  630
    x14       C166      -1
    x14       C231      -1
    x14       C282      -1
    x14       C305      -1
    x14       C360      -1
    x14       C372      -1
    x16       __OBJ___  908
    x16       C52       -1
    x16       C116      -1
    x16       C206      -1
    x16       C278      -1
    x17       __OBJ___  207
    x17       C264      -1
    x17       C268      -1
    x17       C292      -1
    x19       __OBJ___  254
    x19       C62       -1
    x19       C267      -1
    x21       __OBJ___  244
    x21       C142      -1
    x21       C219      -1
    x21       C221      -1
    x21       C273      -1
    x23       __OBJ___  915
    x23       C183      -1
    x23       C202      -1
    x23       C289      -1
    x23       C326      -1
    x25       __OBJ___  312
    x25       C200      -1
    x25       C324      -1
    x25       C336      -1
    x27       __OBJ___  72
    x27       C27       -1
    x27       C208      -1
    x27       C228      -1
    x28       __OBJ___  411
    x28       C120      -1
    x28       C174      -1
    x28       C227      -1
    x29       __OBJ___  630
    x29       C68       -1
    x29       C241      -1
    x29       C322      -1
    x32       __OBJ___  869
    x32       C211      -1
    x32       C299      -1
    x32       C310      -1
    x32       C312      -1
    x34       __OBJ___  314
    x34       C151      -1
    x34       C358      -1
    x35       __OBJ___  847
    x35       C181      -1
    x35       C201      -1
    x35       C287      -1
    x35       C393      -1
    x36       __OBJ___  693
    x36       C38       -1
    x36       C269      -1
    x36       C340      -1
    x46       __OBJ___  629
    x46       C100      -1
    x46       C178      -1
    x46       C361      -1
    x49       __OBJ___  588
    x49       C53       -1
    x49       C344      -1
    x53       __OBJ___  279
    x53       C36       -1
    x53       C44       -1
    x53       C133      -1
    x53       C172      -1
    x53       C212      -1
    x54       __OBJ___  535
    x54       C97       -1
    x54       C131      -1
    x54       C380      -1
    x55       __OBJ___  268
    x55       C51       -1
    x55       C126      -1
    x55       C373      -1
    x55       C379      -1
    x56       __OBJ___  134
    x56       C12       -1
    x56       C15       -1
    x56       C162      -1
    x57       __OBJ___  531
    x57       C189      -1
    x57       C207      -1
    x59       __OBJ___  378
    x59       C164      -1
    x59       C308      -1
    x59       C330      -1
    x66       __OBJ___  242
    x66       C59       -1
    x66       C236      -1
    x66       C347      -1
    x66       C398      -1
    x69       __OBJ___  994
    x69       C1        -1
    x69       C109      -1
    x69       C335      -1
    x70       __OBJ___  499
    x70       C108      -1
    x70       C226      -1
    x70       C351      -1
    x70       C364      -1
    x83       __OBJ___  103
    x83       C85       -1
    x83       C237      -1
    x83       C245      -1
    x87       __OBJ___  129
    x87       C78       -1
    x87       C117      -1
    x111      __OBJ___  193
    x111      C196      -1
    x111      C307      -1
    x111      C336      -1
    x112      __OBJ___  323
    x112      C153      -1
    x112      C241      -1
    x112      C370      -1
    x116      __OBJ___  739
    x116      C27       -1
    x116      C36       -1
    x116      C53       -1
    x116      C77       -1
    x116      C78       -1
    x116      C279      -1
    x123      __OBJ___  923
    x123      C97       -1
    x123      C207      -1
    x123      C245      -1
    x123      C331      -1
    x125      __OBJ___  410
    x125      C2        -1
    x125      C247      -1
    x125      C278      -1
    x135      __OBJ___  641
    x135      C247      -1
    x135      C274      -1
    x135      C374      -1
    x137      __OBJ___  202
    x137      C237      -1
    x137      C287      -1
    x142      __OBJ___  422
    x142      C8        -1
    x142      C208      -1
    x142      C247      -1
    x145      __OBJ___  705
    x145      C64       -1
    x145      C121      -1
    x145      C151      -1
    x145      C273      -1
    x146      __OBJ___  163
    x146      C72       -1
    x146      C85       -1
    x146      C133      -1
    x146      C219      -1
    x148      __OBJ___  630
    x148      C94       -1
    x148      C206      -1
    x148      C312      -1
    x155      __OBJ___  476
    x155      C148      -1
    x155      C326      -1
    x156      __OBJ___  475
    x156      C350      -1
    x156      C393      -1
    x157      __OBJ___  471
    x157      C120      -1
    x157      C178      -1
    x157      C303      -1
    x159      __OBJ___  719
    x159      C206      -1
    x159      C211      -1
    x159      C287      -1
    x161      __OBJ___  366
    x161      C26       -1
    x161      C292      -1
    x161      C330      -1
    x164      __OBJ___  511
    x164      C44       -1
    x164      C148      -1
    x164      C171      -1
    x164      C358      -1
    x167      __OBJ___  139
    x167      C89       -1
    x167      C164      -1
    x168      __OBJ___  38
    x168      C62       -1
    x168      C324      -1
    x168      C333      -1
    x169      __OBJ___  38
    x169      C196      -1
    x169      C204      -1
    x169      C228      -1
    x171      __OBJ___  161
    x171      C131      -1
    x171      C283      -1
    x176      __OBJ___  530
    x176      C206      -1
    x176      C256      -1
    x176      C312      -1
    x177      __OBJ___  603
    x177      C287      -1
    x177      C289      -1
    x183      __OBJ___  238
    x183      C150      -1
    x183      C202      -1
    x183      C269      -1
    x183      C346      -1
    x187      __OBJ___  97
    x187      C183      -1
    x187      C207      -1
    x187      C246      -1
    x187      C281      -1
    x188      __OBJ___  671
    x188      C36       -1
    x188      C211      -1
    x188      C384      -1
    x189      __OBJ___  518
    x189      C239      -1
    x189      C256      -1
    x189      C360      -1
    x189      C379      -1
    x195      __OBJ___  438
    x195      C171      -1
    x195      C189      -1
    x199      __OBJ___  289
    x199      C126      -1
    x199      C335      -1
    x199      C343      -1
    x200      __OBJ___  513
    x200      C52       -1
    x200      C166      -1
    x200      C366      -1
    x200      C384      -1
    x201      __OBJ___  148
    x201      C72       -1
    x205      __OBJ___  410
    x205      C129      -1
    x205      C257      -1
    x205      C325      -1
    x206      __OBJ___  16
    x206      C62       -1
    x207      __OBJ___  465
    x207      C77       -1
    x207      C89       -1
    x207      C316      -1
    x208      __OBJ___  205
    x208      C278      -1
    x210      __OBJ___  876
    x210      C175      -1
    x210      C227      -1
    x210      C351      -1
    x212      __OBJ___  415
    x212      C2        -1
    x212      C8        -1
    x212      C117      -1
    x216      __OBJ___  66
    x216      C223      -1
    x216      C399      -1
    x218      __OBJ___  355
    x218      C228      -1
    x218      C303      -1
    x221      __OBJ___  580
    x221      C239      -1
    x221      C241      -1
    x221      C268      -1
    x221      C399      -1
    x223      __OBJ___  182
    x223      C131      -1
    x223      C350      -1
    x223      C356      -1
    x224      __OBJ___  126
    x224      C143      -1
    x224      C202      -1
    x224      C209      -1
    x225      __OBJ___  404
    x225      C219      -1
    x225      C393      -1
    x226      __OBJ___  336
    x226      C262      -1
    x226      C339      -1
    x230      __OBJ___  710
    x230      C133      -1
    x230      C267      -1
    x230      C279      -1
    x230      C356      -1
    x231      __OBJ___  194
    x231      C171      -1
    x231      C237      -1
    x231      C380      -1
    x232      __OBJ___  701
    x232      C117      -1
    x232      C178      -1
    x232      C398      -1
    x233      __OBJ___  169
    x233      C281      -1
    x233      C325      -1
    x234      __OBJ___  550
    x234      C206      -1
    x234      C236      -1
    x234      C305      -1
    x234      C310      -1
    x236      __OBJ___  532
    x236      C15       -1
    x236      C174      -1
    x236      C246      -1
    x236      C347      -1
    x237      __OBJ___  985
    x237      C44       -1
    x237      C208      -1
    x237      C241      -1
    x237      C305      -1
    x247      __OBJ___  59
    x247      C52       -1
    x247      C264      -1
    x247      C343      -1
    x249      __OBJ___  63
    x249      C2        -1
    x249      C51       -1
    x249      C148      -1
    x249      C153      -1
    x252      __OBJ___  86
    x252      C129      -1
    x252      C228      -1
    x252      C366      -1
    x253      __OBJ___  597
    x253      C257      -1
    x253      C374      -1
    x253      C380      -1
    x254      __OBJ___  185
    x254      C119      -1
    x254      C181      -1
    x260      __OBJ___  543
    x260      C68       -1
    x260      C175      -1
    x260      C274      -1
    x260      C364      -1
    x267      __OBJ___  830
    x267      C97       -1
    x267      C212      -1
    x267      C267      -1
    x268      __OBJ___  126
    x268      C221      -1
    x268      C226      -1
    x274      __OBJ___  111
    x274      C364      -1
    x275      __OBJ___  100
    x275      C339      -1
    x276      __OBJ___  110
    x276      C38       -1
    x276      C162      -1
    x276      C175      -1
    x276      C307      -1
    x279      __OBJ___  298
    x279      C299      -1
    x279      C346      -1
    x280      __OBJ___  200
    x280      C100      -1
    x280      C247      -1
    x281      __OBJ___  674
    x281      C142      -1
    x281      C339      -1
    x281      C340      -1
    x283      __OBJ___  73
    x283      C11       -1
    x283      C274      -1
    x288      __OBJ___  923
    x288      C181      -1
    x288      C289      -1
    x288      C322      -1
    x288      C335      -1
    x292      __OBJ___  286
    x292      C339      -1
    x292      C346      -1
    x294      __OBJ___  676
    x294      C307      -1
    x294      C361      -1
    x296      __OBJ___  11
    x296      C360      -1
    x298      __OBJ___  577
    x298      C201      -1
    x298      C221      -1
    x300      __OBJ___  74
    x300      C151      -1
    x300      C283      -1
    x300      C335      -1
    x301      __OBJ___  365
    x301      C64       -1
    x301      C116      -1
    x301      C196      -1
    x302      __OBJ___  292
    x302      C262      -1
    x302      C310      -1
    x304      __OBJ___  567
    x304      C273      -1
    x304      C336      -1
    x304      C358      -1
    x305      __OBJ___  216
    x305      C256      -1
    x306      __OBJ___  42
    x306      C108      -1
    x306      C119      -1
    x306      C244      -1
    x311      __OBJ___  288
    x311      C279      -1
    x311      C372      -1
    x313      __OBJ___  79
    x313      C59       -1
    x313      C77       -1
    x317      __OBJ___  189
    x317      C241      -1
    x317      C330      -1
    x318      __OBJ___  599
    x318      C200      -1
    x318      C231      -1
    x318      C273      -1
    x325      __OBJ___  82
    x325      C117      -1
    x325      C236      -1
    x325      C244      -1
    x333      __OBJ___  3
    x333      C142      -1
    x333      C204      -1
    x334      __OBJ___  14
    x334      C158      -1
    x338      __OBJ___  184
    x338      C172      -1
    x338      C373      -1
    x338      C398      -1
    x342      __OBJ___  170
    x342      C52       -1
    x342      C143      -1
    x342      C204      -1
    x342      C228      -1
    x342      C257      -1
    x345      __OBJ___  288
    x345      C384      -1
    x346      __OBJ___  59
    x346      C12       -1
    x346      C209      -1
    x348      __OBJ___  274
    x348      C11       -1
    x348      C44       -1
    x349      __OBJ___  389
    x349      C374      -1
    x351      __OBJ___  948
    x351      C109      -1
    x351      C196      -1
    x351      C393      -1
    x356      __OBJ___  73
    x356      C1        -1
    x356      C245      -1
    x357      __OBJ___  337
    x357      C119      -1
    x357      C126      -1
    x357      C269      -1
    x358      __OBJ___  11
    x358      C89       -1
    x363      __OBJ___  584
    x363      C212      -1
    x363      C358      -1
    x367      __OBJ___  275
    x367      C282      -1
    x367      C347      -1
    x368      __OBJ___  479
    x368      C273      -1
    x368      C316      -1
    x373      __OBJ___  93
    x373      C172      -1
    x382      __OBJ___  131
    x382      C26       -1
    x382      C264      -1
    x382      C380      -1
    x385      __OBJ___  303
    x385      C158      -1
    x385      C166      -1
    x385      C308      -1
    x386      __OBJ___  560
    x386      C94       -1
    x386      C279      -1
    x389      __OBJ___  218
    x389      C120      -1
    x389      C310      -1
    x389      C352      -1
    x397      __OBJ___  306
    x397      C150      -1
    x397      C212      -1
    x397      C352      -1
    x398      __OBJ___  373
    x398      C158      -1
    x398      C344      -1
    MARKER    'MARKER'                 'INTEND'
RHS
    RHS       __OBJ___  -23063
    RHS       C1        -1
    RHS       C2        -1
    RHS       C8        -1
    RHS       C11       -1
    RHS       C12       -1
    RHS       C15       -1
    RHS       C26       -1
    RHS       C27       -1
    RHS       C36       -1
    RHS       C38       -1
    RHS       C44       -1
    RHS       C51       -1
    RHS       C52       -1
    RHS       C53       -1
    RHS       C59       -1
    RHS       C62       -1
    RHS       C64       -1
    RHS       C68       -1
    RHS       C72       -1
    RHS       C77       -1
    RHS       C78       -1
    RHS       C85       -1
    RHS       C89       -1
    RHS       C94       -1
    RHS       C97       -1
    RHS       C100      -1
    RHS       C108      -1
    RHS       C109      -1
    RHS       C116      -1
    RHS       C117      -1
    RHS       C119      -1
    RHS       C120      -1
    RHS       C121      -1
    RHS       C126      -1
    RHS       C129      -1
    RHS       C131      -1
    RHS       C133      -1
    RHS       C142      -1
    RHS       C143      -1
    RHS       C148      -1
    RHS       C150      -1
    RHS       C151      -1
    RHS       C153      -1
    RHS       C158      -1
    RHS       C162      -1
    RHS       C164      -1
    RHS       C166      -1
    RHS       C171      -1
    RHS       C172      -1
    RHS       C174      -1
    RHS       C175      -1
    RHS       C178      -1
    RHS       C181      -1
    RHS       C183      -1
    RHS       C189      -1
    RHS       C196      -1
    RHS       C200      -1
    RHS       C201      -1
    RHS       C202      -1
    RHS       C204      -1
    RHS       C206      -1
    RHS       C207      -1
    RHS       C208      -1
    RHS       C209      -1
    RHS       C211      -1
    RHS       C212      -1
    RHS       C219      -1
    RHS       C221      -1
    RHS       C223      -1
    RHS       C226      -1
    RHS       C227      -1
    RHS       C228      -1
    RHS       C231      -1
    RHS       C236      -1
    RHS       C237      -1
    RHS       C239      -1
    RHS       C241      -1
    RHS       C244      -1
    RHS       C245      -1
    RHS       C246      -1
    RHS       C247      -1
    RHS       C256      -1
    RHS       C257      -1
    RHS       C262      -1
    RHS       C264      -1
    RHS       C267      -1
    RHS       C268      -1
    RHS       C269      -1
    RHS       C273      -1
    RHS       C274      -1
    RHS       C278      -1
    RHS       C279      -1
    RHS       C281      -1
    RHS       C282      -1
    RHS       C283      -1
    RHS       C287      -1
    RHS       C289      -1
    RHS       C292      -1
    RHS       C299      -1
    RHS       C303      -1
    RHS       C305      -1
    RHS       C307      -1
    RHS       C308      -1
    RHS       C310      -1
    RHS       C312      -1
    RHS       C316      -1
    RHS       C322      -1
    RHS       C324      -1
    RHS       C325      -1
    RHS       C326      -1
    RHS       C330      -1
    RHS       C331      -1
    RHS       C333      -1
    RHS       C335      -1
    RHS       C336      -1
    RHS       C339      -1
    RHS       C340      -1
    RHS       C343      -1
    RHS       C344      -1
    RHS       C346      -1
    RHS       C347      -1
    RHS       C350      -1
    RHS       C351      -1
    RHS       C352      -1
    RHS       C356      -1
    RHS       C358      -1
    RHS       C360      -1
    RHS       C361      -1
    RHS       C364      -1
    RHS       C366      -1
    RHS       C370      -1
    RHS       C372      -1
    RHS       C373      -1
    RHS       C374      -1
    RHS       C379      -1
    RHS       C380      -1
    RHS       C384      -1
    RHS       C393      -1
    RHS       C398      -1
    RHS       C399      -1
BOUNDS
 UP BOUND     x3        1
 UP BOUND     x8        1
 UP BOUND     x13       1
 UP BOUND     x14       1
 UP BOUND     x16       1
 UP BOUND     x17       1
 UP BOUND     x19       1
 UP BOUND     x21       1
 UP BOUND     x23       1
 UP BOUND     x25       1
 UP BOUND     x27       1
 UP BOUND     x28       1
 UP BOUND     x29       1
 UP BOUND     x32       1
 UP BOUND     x34       1
 UP BOUND     x35       1
 UP BOUND     x36       1
 UP BOUND     x46       1
 UP BOUND     x49       1
 UP BOUND     x53       1
 UP BOUND     x54       1
 UP BOUND     x55       1
 UP BOUND     x56       1
 UP BOUND     x57       1
 UP BOUND     x59       1
 UP BOUND     x66       1
 UP BOUND     x69       1
 UP BOUND     x70       1
 UP BOUND     x83       1
 UP BOUND     x87       1
 UP BOUND     x111      1
 UP BOUND     x112      1
 UP BOUND     x116      1
 UP BOUND     x123      1
 UP BOUND     x125      1
 UP BOUND     x135      1
 UP BOUND     x137      1
 UP BOUND     x142      1
 UP BOUND     x145      1
 UP BOUND     x146      1
 UP BOUND     x148      1
 UP BOUND     x155      1
 UP BOUND     x156      1
 UP BOUND     x157      1
 UP BOUND     x159      1
 UP BOUND     x161      1
 UP BOUND     x164      1
 UP BOUND     x167      1
 UP BOUND     x168      1
 UP BOUND     x169      1
 UP BOUND     x171      1
 UP BOUND     x176      1
 UP BOUND     x177      1
 UP BOUND     x183      1
 UP BOUND     x187      1
 UP BOUND     x188      1
 UP BOUND     x189      1
 UP BOUND     x195      1
 UP BOUND     x199      1
 UP BOUND     x200      1
 UP BOUND     x201      1
 UP BOUND     x205      1
 UP BOUND     x206      1
 UP BOUND     x207      1
 UP BOUND     x208      1
 UP BOUND     x210      1
 UP BOUND     x212      1
 UP BOUND     x216      1
 UP BOUND     x218      1
 UP BOUND     x221      1
 UP BOUND     x223      1
 UP BOUND     x224      1
 UP BOUND     x225      1
 UP BOUND     x226      1
 UP BOUND     x230      1
 UP BOUND     x231      1
 UP BOUND     x232      1
 UP BOUND     x233      1
 UP BOUND     x234      1
 UP BOUND     x236      1
 UP BOUND     x237      1
 UP BOUND     x247      1
 UP BOUND     x249      1
 UP BOUND     x252      1
 UP BOUND     x253      1
 UP BOUND     x254      1
 UP BOUND     x260      1
 UP BOUND     x267      1
 UP BOUND     x268      1
 UP BOUND     x274      1
 UP BOUND     x275      1
 UP BOUND     x276      1
 UP BOUND     x279      1
 UP BOUND     x280      1
 UP BOUND     x281      1
 UP BOUND     x283      1
 UP BOUND     x288      1
 UP BOUND     x292      1
 UP BOUND     x294      1
 UP BOUND     x296      1
 UP BOUND     x298      1
 UP BOUND     x300      1
 UP BOUND     x301      1
 UP BOUND     x302      1
 UP BOUND     x304      1
 UP BOUND     x305      1
 UP BOUND     x306      1
 UP BOUND     x311      1
 UP BOUND     x313      1
 UP BOUND     x317      1
 UP BOUND     x318      1
 UP BOUND     x325      1
 UP BOUND     x333      1
 UP BOUND     x334      1
 UP BOUND     x338      1
 UP BOUND     x342      1
 UP BOUND     x345      1
 UP BOUND     x346      1
 UP BOUND     x348      1
 UP BOUND     x349      1
 UP BOUND     x351      1
 UP BOUND     x356      1
 UP BOUND     x357      1
 UP BOUND     x358      1
 UP BOUND     x363      1
 UP BOUND     x367      1
 UP BOUND     x368      1
 UP BOUND     x373      1
 UP BOUND     x382      1
 UP BOUND     x385      1
 UP BOUND     x386      1
 UP BOUND     x389      1
 UP BOUND     x397      1
 UP BOUND     x398      1
ENDATA
